% Auto-generated by scripts/generate_dzn.py
% problem_type   = regex
% instance       = regex_50
% source_json    = instances_json/2_high_blowup/regex_50.json
% blowup         = 13.5
% representation = DFA

mode = 0;

var_count = 21;
Q = 189;
S = 3;
q0 = 1;
F = {130, 131, 132, 133, 134, 135, 136, 137, 138, 139, 140, 141, 142, 143, 144, 145, 146, 147, 148, 149, 150, 151, 152, 153, 154, 155, 156, 157, 158, 159, 160, 161, 162, 163, 164, 165, 166, 167, 168, 169, 170, 171, 172, 173, 174, 175, 176, 177, 178, 179, 180, 181, 182, 183, 184, 185, 186, 187, 188, 189};
d_dfa = array2d(1..189, 1..3, [
  1, 1, 2,
  1, 1, 3,
  4, 1, 3,
  6, 6, 5,
  8, 8, 7,
  8, 8, 9,
  12, 11, 10,
  11, 11, 13,
  11, 11, 10,
  16, 15, 14,
  15, 15, 17,
  19, 19, 18,
  15, 15, 14,
  22, 21, 20,
  21, 21, 23,
  25, 25, 24,
  21, 21, 20,
  27, 27, 26,
  27, 27, 28,
  31, 30, 29,
  30, 30, 32,
  34, 34, 33,
  30, 30, 29,
  36, 36, 35,
  36, 36, 37,
  40, 39, 38,
  39, 39, 41,
  39, 39, 38,
  44, 43, 42,
  43, 43, 45,
  47, 47, 46,
  43, 43, 42,
  49, 49, 48,
  49, 49, 50,
  53, 52, 51,
  52, 52, 54,
  52, 52, 51,
  57, 56, 55,
  56, 56, 58,
  60, 60, 59,
  56, 56, 55,
  63, 62, 61,
  62, 62, 64,
  66, 66, 65,
  62, 62, 61,
  68, 68, 67,
  68, 68, 69,
  72, 71, 70,
  71, 71, 73,
  71, 71, 70,
  76, 75, 74,
  75, 75, 77,
  79, 79, 78,
  75, 75, 74,
  82, 81, 80,
  81, 81, 83,
  85, 85, 84,
  81, 81, 80,
  87, 87, 86,
  87, 87, 88,
  91, 90, 89,
  90, 90, 92,
  94, 94, 93,
  90, 90, 89,
  96, 96, 95,
  96, 96, 97,
  100, 99, 98,
  99, 99, 101,
  99, 99, 98,
  104, 103, 102,
  103, 103, 105,
  107, 107, 106,
  103, 103, 102,
  110, 109, 108,
  109, 109, 111,
  113, 113, 112,
  109, 109, 108,
  115, 115, 114,
  115, 115, 116,
  119, 118, 117,
  118, 118, 120,
  122, 122, 121,
  118, 118, 117,
  124, 124, 123,
  124, 124, 125,
  128, 127, 126,
  127, 127, 129,
  127, 127, 126,
  132, 131, 130,
  131, 131, 133,
  135, 135, 134,
  131, 131, 130,
  137, 137, 136,
  137, 137, 138,
  141, 140, 139,
  140, 140, 142,
  140, 140, 139,
  145, 144, 143,
  144, 144, 146,
  148, 148, 147,
  144, 144, 143,
  151, 150, 149,
  150, 150, 152,
  154, 154, 153,
  150, 150, 149,
  156, 156, 155,
  156, 156, 157,
  160, 159, 158,
  159, 159, 161,
  163, 163, 162,
  159, 159, 158,
  165, 165, 164,
  165, 165, 166,
  169, 168, 167,
  168, 168, 170,
  168, 168, 167,
  173, 172, 171,
  172, 172, 174,
  176, 176, 175,
  172, 172, 171,
  178, 178, 177,
  178, 178, 179,
  182, 181, 180,
  181, 181, 183,
  181, 181, 180,
  186, 185, 184,
  185, 185, 187,
  189, 189, 188,
  185, 185, 184,
  4, 1, 3,
  1, 1, 2,
  6, 6, 5,
  1, 1, 3,
  8, 8, 7,
  8, 8, 9,
  12, 11, 10,
  11, 11, 13,
  11, 11, 10,
  16, 15, 14,
  15, 15, 17,
  19, 19, 18,
  15, 15, 14,
  22, 21, 20,
  21, 21, 23,
  25, 25, 24,
  21, 21, 20,
  27, 27, 26,
  27, 27, 28,
  31, 30, 29,
  30, 30, 32,
  34, 34, 33,
  30, 30, 29,
  36, 36, 35,
  36, 36, 37,
  40, 39, 38,
  39, 39, 41,
  39, 39, 38,
  44, 43, 42,
  43, 43, 45,
  47, 47, 46,
  43, 43, 42,
  49, 49, 48,
  49, 49, 50,
  53, 52, 51,
  52, 52, 54,
  52, 52, 51,
  57, 56, 55,
  56, 56, 58,
  60, 60, 59,
  56, 56, 55,
  63, 62, 61,
  62, 62, 64,
  66, 66, 65,
  62, 62, 61,
  68, 68, 67,
  68, 68, 69,
  72, 71, 70,
  71, 71, 73,
  71, 71, 70,
  76, 75, 74,
  75, 75, 77,
  79, 79, 78,
  75, 75, 74,
  82, 81, 80,
  81, 81, 83,
  85, 85, 84,
  81, 81, 80,
  87, 87, 86,
  87, 87, 88
]);
d_nfa = array2d(1..189, 1..3, [
  {}, {}, {},
  {}, {}, {},
  {}, {}, {},
  {}, {}, {},
  {}, {}, {},
  {}, {}, {},
  {}, {}, {},
  {}, {}, {},
  {}, {}, {},
  {}, {}, {},
  {}, {}, {},
  {}, {}, {},
  {}, {}, {},
  {}, {}, {},
  {}, {}, {},
  {}, {}, {},
  {}, {}, {},
  {}, {}, {},
  {}, {}, {},
  {}, {}, {},
  {}, {}, {},
  {}, {}, {},
  {}, {}, {},
  {}, {}, {},
  {}, {}, {},
  {}, {}, {},
  {}, {}, {},
  {}, {}, {},
  {}, {}, {},
  {}, {}, {},
  {}, {}, {},
  {}, {}, {},
  {}, {}, {},
  {}, {}, {},
  {}, {}, {},
  {}, {}, {},
  {}, {}, {},
  {}, {}, {},
  {}, {}, {},
  {}, {}, {},
  {}, {}, {},
  {}, {}, {},
  {}, {}, {},
  {}, {}, {},
  {}, {}, {},
  {}, {}, {},
  {}, {}, {},
  {}, {}, {},
  {}, {}, {},
  {}, {}, {},
  {}, {}, {},
  {}, {}, {},
  {}, {}, {},
  {}, {}, {},
  {}, {}, {},
  {}, {}, {},
  {}, {}, {},
  {}, {}, {},
  {}, {}, {},
  {}, {}, {},
  {}, {}, {},
  {}, {}, {},
  {}, {}, {},
  {}, {}, {},
  {}, {}, {},
  {}, {}, {},
  {}, {}, {},
  {}, {}, {},
  {}, {}, {},
  {}, {}, {},
  {}, {}, {},
  {}, {}, {},
  {}, {}, {},
  {}, {}, {},
  {}, {}, {},
  {}, {}, {},
  {}, {}, {},
  {}, {}, {},
  {}, {}, {},
  {}, {}, {},
  {}, {}, {},
  {}, {}, {},
  {}, {}, {},
  {}, {}, {},
  {}, {}, {},
  {}, {}, {},
  {}, {}, {},
  {}, {}, {},
  {}, {}, {},
  {}, {}, {},
  {}, {}, {},
  {}, {}, {},
  {}, {}, {},
  {}, {}, {},
  {}, {}, {},
  {}, {}, {},
  {}, {}, {},
  {}, {}, {},
  {}, {}, {},
  {}, {}, {},
  {}, {}, {},
  {}, {}, {},
  {}, {}, {},
  {}, {}, {},
  {}, {}, {},
  {}, {}, {},
  {}, {}, {},
  {}, {}, {},
  {}, {}, {},
  {}, {}, {},
  {}, {}, {},
  {}, {}, {},
  {}, {}, {},
  {}, {}, {},
  {}, {}, {},
  {}, {}, {},
  {}, {}, {},
  {}, {}, {},
  {}, {}, {},
  {}, {}, {},
  {}, {}, {},
  {}, {}, {},
  {}, {}, {},
  {}, {}, {},
  {}, {}, {},
  {}, {}, {},
  {}, {}, {},
  {}, {}, {},
  {}, {}, {},
  {}, {}, {},
  {}, {}, {},
  {}, {}, {},
  {}, {}, {},
  {}, {}, {},
  {}, {}, {},
  {}, {}, {},
  {}, {}, {},
  {}, {}, {},
  {}, {}, {},
  {}, {}, {},
  {}, {}, {},
  {}, {}, {},
  {}, {}, {},
  {}, {}, {},
  {}, {}, {},
  {}, {}, {},
  {}, {}, {},
  {}, {}, {},
  {}, {}, {},
  {}, {}, {},
  {}, {}, {},
  {}, {}, {},
  {}, {}, {},
  {}, {}, {},
  {}, {}, {},
  {}, {}, {},
  {}, {}, {},
  {}, {}, {},
  {}, {}, {},
  {}, {}, {},
  {}, {}, {},
  {}, {}, {},
  {}, {}, {},
  {}, {}, {},
  {}, {}, {},
  {}, {}, {},
  {}, {}, {},
  {}, {}, {},
  {}, {}, {},
  {}, {}, {},
  {}, {}, {},
  {}, {}, {},
  {}, {}, {},
  {}, {}, {},
  {}, {}, {},
  {}, {}, {},
  {}, {}, {},
  {}, {}, {},
  {}, {}, {},
  {}, {}, {},
  {}, {}, {},
  {}, {}, {},
  {}, {}, {},
  {}, {}, {},
  {}, {}, {},
  {}, {}, {},
  {}, {}, {},
  {}, {}, {},
  {}, {}, {}
]);
